p cnf 112 378
a 1 2 3 4 5 6 7 0
e 8 9 10 11 12 13 14 15 16 110 0
e 17 18 19 20 21 22 23 0
e 24 25 26 27 28 29 30 32 33 34 35 36 37 38 39 40 41 42 43 44 45 31 46 47 0
a 48 49 50 51 52 53 54 0
e 55 56 57 58 59 60 61 63 64 65 66 67 68 69 70 71 72 73 74 75 76 62 77 78 111 0
e 79 80 81 82 83 84 85 0
e 86 87 88 89 90 91 92 94 95 96 97 98 99 100 101 102 103 104 105 106 107 93 108 109 0
e 112 0
-8 -1 0
8 1 0
-9 -2 0
9 2 0
-10 -3 0
10 3 0
-11 -4 0
11 4 0
-12 -5 0
12 5 0
-13 -6 0
13 6 0
-14 -7 0
14 7 0
-15 -1 -2 0
-15 -1 -3 0
-15 -1 -4 0
-15 -1 -5 0
-15 -1 -6 0
-15 -1 -7 0
-15 -2 -3 0
-15 -2 -4 0
-15 -2 -5 0
-15 -2 -6 0
-15 -2 -7 0
-15 -3 -4 0
-15 -3 -5 0
-15 -3 -6 0
-15 -3 -7 0
-15 -4 -5 0
-15 -4 -6 0
-15 -4 -7 0
-15 -5 -6 0
-15 -5 -7 0
-15 -6 -7 0
-15 1 2 3 4 5 6 7 0
15 -1 2 3 4 5 6 7 0
15 1 -2 3 4 5 6 7 0
15 1 2 -3 4 5 6 7 0
15 1 2 3 -4 5 6 7 0
15 1 2 3 4 -5 6 7 0
15 1 2 3 4 5 -6 7 0
15 1 2 3 4 5 6 -7 0
16 -15 0
-16 15 0
-24 -17 0
-24 8 0
-8 17 24 0
-25 -18 0
-25 9 0
-9 18 25 0
-26 -19 0
-26 10 0
-10 19 26 0
-27 -20 0
-27 11 0
-11 20 27 0
-28 -21 0
-28 12 0
-12 21 28 0
-29 -22 0
-29 13 0
-13 22 29 0
-30 -23 0
-30 14 0
-14 23 30 0
-32 8 0
-32 9 0
32 -8 -9 0
-33 8 0
-33 9 0
-33 10 0
33 -8 -9 -10 0
-34 9 0
-34 10 0
-34 11 0
34 -9 -10 -11 0
-35 10 0
-35 11 0
-35 12 0
35 -10 -11 -12 0
-36 11 0
-36 12 0
-36 13 0
36 -11 -12 -13 0
-37 12 0
-37 13 0
-37 14 0
37 -12 -13 -14 0
-38 13 0
-38 14 0
38 -13 -14 0
-39 -17 32 0
-32 39 0
17 39 0
-40 -18 33 0
-33 40 0
18 40 0
-41 -19 34 0
-34 41 0
19 41 0
-42 -20 35 0
-35 42 0
20 42 0
-43 -21 36 0
-36 43 0
21 43 0
-44 -22 37 0
-37 44 0
22 44 0
-45 -23 38 0
-38 45 0
23 45 0
-31 -17 -18 0
-31 -17 -19 0
-31 -17 -20 0
-31 -17 -21 0
-31 -17 -22 0
-31 -17 -23 0
-31 -18 -19 0
-31 -18 -20 0
-31 -18 -21 0
-31 -18 -22 0
-31 -18 -23 0
-31 -19 -20 0
-31 -19 -21 0
-31 -19 -22 0
-31 -19 -23 0
-31 -20 -21 0
-31 -20 -22 0
-31 -20 -23 0
-31 -21 -22 0
-31 -21 -23 0
-31 -22 -23 0
-31 17 18 19 20 21 22 23 0
31 -17 18 19 20 21 22 23 0
31 17 -18 19 20 21 22 23 0
31 17 18 -19 20 21 22 23 0
31 17 18 19 -20 21 22 23 0
31 17 18 19 20 -21 22 23 0
31 17 18 19 20 21 -22 23 0
31 17 18 19 20 21 22 -23 0
-46 39 0
-46 40 0
-46 41 0
-46 42 0
-46 43 0
-46 44 0
-46 45 0
46 -39 -40 -41 -42 -43 -44 -45 0
47 -31 -46 0
-47 31 0
-47 46 0
-55 -48 0
-55 24 0
-24 48 55 0
-56 -49 0
-56 25 0
-25 49 56 0
-57 -50 0
-57 26 0
-26 50 57 0
-58 -51 0
-58 27 0
-27 51 58 0
-59 -52 0
-59 28 0
-28 52 59 0
-60 -53 0
-60 29 0
-29 53 60 0
-61 -54 0
-61 30 0
-30 54 61 0
-63 24 0
-63 25 0
63 -24 -25 0
-64 24 0
-64 25 0
-64 26 0
64 -24 -25 -26 0
-65 25 0
-65 26 0
-65 27 0
65 -25 -26 -27 0
-66 26 0
-66 27 0
-66 28 0
66 -26 -27 -28 0
-67 27 0
-67 28 0
-67 29 0
67 -27 -28 -29 0
-68 28 0
-68 29 0
-68 30 0
68 -28 -29 -30 0
-69 29 0
-69 30 0
69 -29 -30 0
-70 -48 63 0
-63 70 0
48 70 0
-71 -49 64 0
-64 71 0
49 71 0
-72 -50 65 0
-65 72 0
50 72 0
-73 -51 66 0
-66 73 0
51 73 0
-74 -52 67 0
-67 74 0
52 74 0
-75 -53 68 0
-68 75 0
53 75 0
-76 -54 69 0
-69 76 0
54 76 0
-62 -48 -49 0
-62 -48 -50 0
-62 -48 -51 0
-62 -48 -52 0
-62 -48 -53 0
-62 -48 -54 0
-62 -49 -50 0
-62 -49 -51 0
-62 -49 -52 0
-62 -49 -53 0
-62 -49 -54 0
-62 -50 -51 0
-62 -50 -52 0
-62 -50 -53 0
-62 -50 -54 0
-62 -51 -52 0
-62 -51 -53 0
-62 -51 -54 0
-62 -52 -53 0
-62 -52 -54 0
-62 -53 -54 0
-62 48 49 50 51 52 53 54 0
62 -48 49 50 51 52 53 54 0
62 48 -49 50 51 52 53 54 0
62 48 49 -50 51 52 53 54 0
62 48 49 50 -51 52 53 54 0
62 48 49 50 51 -52 53 54 0
62 48 49 50 51 52 -53 54 0
62 48 49 50 51 52 53 -54 0
-77 70 0
-77 71 0
-77 72 0
-77 73 0
-77 74 0
-77 75 0
-77 76 0
77 -70 -71 -72 -73 -74 -75 -76 0
78 -62 -77 0
-78 62 0
-78 77 0
-86 -79 0
-86 55 0
-55 79 86 0
-87 -80 0
-87 56 0
-56 80 87 0
-88 -81 0
-88 57 0
-57 81 88 0
-89 -82 0
-89 58 0
-58 82 89 0
-90 -83 0
-90 59 0
-59 83 90 0
-91 -84 0
-91 60 0
-60 84 91 0
-92 -85 0
-92 61 0
-61 85 92 0
-94 55 0
-94 56 0
94 -55 -56 0
-95 55 0
-95 56 0
-95 57 0
95 -55 -56 -57 0
-96 56 0
-96 57 0
-96 58 0
96 -56 -57 -58 0
-97 57 0
-97 58 0
-97 59 0
97 -57 -58 -59 0
-98 58 0
-98 59 0
-98 60 0
98 -58 -59 -60 0
-99 59 0
-99 60 0
-99 61 0
99 -59 -60 -61 0
-100 60 0
-100 61 0
100 -60 -61 0
-101 -79 94 0
-94 101 0
79 101 0
-102 -80 95 0
-95 102 0
80 102 0
-103 -81 96 0
-96 103 0
81 103 0
-104 -82 97 0
-97 104 0
82 104 0
-105 -83 98 0
-98 105 0
83 105 0
-106 -84 99 0
-99 106 0
84 106 0
-107 -85 100 0
-100 107 0
85 107 0
-93 -79 -80 0
-93 -79 -81 0
-93 -79 -82 0
-93 -79 -83 0
-93 -79 -84 0
-93 -79 -85 0
-93 -80 -81 0
-93 -80 -82 0
-93 -80 -83 0
-93 -80 -84 0
-93 -80 -85 0
-93 -81 -82 0
-93 -81 -83 0
-93 -81 -84 0
-93 -81 -85 0
-93 -82 -83 0
-93 -82 -84 0
-93 -82 -85 0
-93 -83 -84 0
-93 -83 -85 0
-93 -84 -85 0
-93 79 80 81 82 83 84 85 0
93 -79 80 81 82 83 84 85 0
93 79 -80 81 82 83 84 85 0
93 79 80 -81 82 83 84 85 0
93 79 80 81 -82 83 84 85 0
93 79 80 81 82 -83 84 85 0
93 79 80 81 82 83 -84 85 0
93 79 80 81 82 83 84 -85 0
-108 101 0
-108 102 0
-108 103 0
-108 104 0
-108 105 0
-108 106 0
-108 107 0
108 -101 -102 -103 -104 -105 -106 -107 0
109 -93 -108 0
-109 93 0
-109 108 0
110 111 112 0
-110 -16 0
-111 16 0
-111 47 0
-111 -78 0
-112 16 0
-112 47 0
-112 78 0
-112 109 0
